p tw 204 378
1 69
1 176
1 177
2 58
2 59
2 76
2 77
3 65
3 158
3 159
3 191
4 99
4 135
4 149
5 114
5 115
5 144
5 145
5 170
5 171
6 72
6 201
6 202
7 65
7 66
7 182
7 183
8 80
8 81
8 109
8 110
9 53
9 63
9 64
9 97
9 98
9 116
9 117
10 95
10 96
10 116
11 151
11 152
11 175
11 176
12 113
12 114
12 188
12 189
13 86
13 87
13 127
13 128
13 165
13 166
13 195
14 101
14 102
14 177
15 17
15 46
15 121
16 22
16 94
16 95
17 119
17 120
17 154
17 155
18 106
18 107
18 137
18 138
18 159
18 160
19 58
19 92
19 93
20 123
20 124
20 161
20 162
20 191
20 192
21 61
21 62
21 96
21 97
22 33
22 70
22 71
22 196
22 197
23 29
23 202
23 203
24 73
24 74
24 118
24 119
25 74
25 75
25 173
26 108
26 109
26 180
26 181
27 102
27 103
27 139
27 140
27 153
27 154
28 130
28 131
28 140
28 141
28 166
28 167
29 104
29 105
29 157
30 106
30 158
30 178
31 59
31 60
31 84
31 85
31 164
31 165
32 68
32 69
32 173
32 174
32 204
33 52
33 90
34 146
34 147
34 156
34 157
35 131
35 132
35 142
35 143
35 168
35 169
36 62
36 63
36 78
36 79
36 120
37 71
37 72
37 198
37 199
38 54
38 203
38 204
39 135
39 136
39 149
39 150
40 82
40 83
40 194
40 195
41 99
41 100
41 136
41 137
41 150
41 151
42 80
42 107
42 108
42 160
42 161
42 178
42 179
43 132
43 133
43 143
43 144
43 169
43 170
44 125
44 126
44 138
44 139
44 162
44 163
45 134
45 147
45 148
45 172
46 121
46 122
47 87
47 88
47 128
47 129
48 115
48 189
48 190
49 66
49 67
49 126
49 127
49 193
49 194
49 199
49 200
50 129
50 130
50 141
50 142
51 133
51 134
51 145
51 146
51 171
51 172
52 90
52 91
53 98
53 117
54 197
54 198
55 88
55 89
55 186
55 187
56 111
56 112
56 163
56 164
56 184
56 185
57 103
57 104
57 155
57 156
58 59
59 60
60 61
61 62
62 63
63 64
64 79
65 66
66 67
67 68
68 69
70 71
70 196
71 72
73 74
73 118
74 75
75 76
76 77
77 78
78 79
80 81
81 82
82 83
83 84
84 85
85 86
86 87
87 88
88 89
89 190
90 91
91 92
92 93
93 94
94 95
95 96
96 97
97 98
99 100
100 101
101 102
102 103
103 104
104 105
105 148
106 107
107 108
108 109
109 110
110 111
111 112
112 113
113 114
114 115
116 117
118 119
119 120
121 122
122 123
123 124
124 125
125 126
126 127
127 128
128 129
129 130
130 131
131 132
132 133
133 134
135 136
136 137
137 138
138 139
139 140
140 141
141 142
142 143
143 144
144 145
145 146
146 147
147 148
149 150
150 151
151 152
152 153
153 154
154 155
155 156
156 157
158 159
159 160
160 161
161 162
162 163
163 164
164 165
165 166
166 167
167 168
168 169
169 170
170 171
171 172
173 174
174 175
175 176
176 177
178 179
179 180
180 181
181 182
182 183
183 184
184 185
185 186
186 187
187 188
188 189
189 190
191 192
192 193
193 194
194 195
196 197
197 198
198 199
199 200
200 201
201 202
202 203
203 204
